c   #vars: 83   #clauses: 365   #literals: 1004
c 
p cnf 83 365
1 2 62 63 0
1 2 70 71 0
-1 -2 0
-3 -4 0
-5 -6 0
-7 -8 0
-9 -10 0
-11 -12 0
20 -54 64 65 0
-14 -15 0
-16 -17 0
-18 -19 0
7 8 37 -72 0
-21 -22 0
-23 -24 0
42 43 66 67 0
-25 -26 0
-27 -28 0
-29 -30 0
-31 -32 0
-33 -34 0
-35 -36 0
27 28 48 -72 0
-38 -39 0
-40 -41 0
-42 -43 0
-44 -45 0
-46 -47 0
1 2 53 -82 0
29 30 78 79 0
-49 -50 0
-51 -52 0
33 34 -49 58 0
-54 -55 0
-56 -57 0
-48 49 50 61 0
-59 -60 0
1 2 -40 68 0
-62 -63 0
-64 -65 0
-66 -67 0
40 41 -49 69 0
-70 -71 0
25 26 74 75 0
-72 -73 0
-74 -75 0
-76 -77 0
23 24 33 34 0
-78 -79 0
5 6 80 81 0
-80 -81 0
-82 -83 0
-15 48 61 -72 0
11 12 42 43 0
38 39 82 83 0
-1 -38 0
-2 -39 0
18 19 51 52 0
-1 -42 0
-2 -43 0
44 45 56 57 0
-1 -46 0
-2 -47 0
54 55 78 79 0
33 34 -42 58 0
-2 -53 0
42 43 64 65 0
-1 -62 0
-2 -63 0
54 55 62 63 0
-23 40 41 69 0
-2 -68 0
35 36 78 79 0
-1 -70 0
-2 -71 0
21 22 33 34 0
-3 -33 0
-4 -34 0
51 52 74 75 0
27 28 48 -61 0
-4 -37 0
-3 -44 0
-4 -45 0
5 6 72 73 0
-3 -62 0
-4 -63 0
48 -61 72 73 0
-5 -40 0
-6 -41 0
-1 14 15 53 0
-5 -49 0
-6 -50 0
18 19 72 73 0
-5 -62 0
-6 -63 0
-5 -72 0
-6 -73 0
18 19 74 75 0
-5 -80 0
-6 -81 0
11 12 76 77 0
-7 -31 0
-8 -32 0
44 45 74 75 0
-7 -35 0
-8 -36 0
14 15 76 77 0
-1 40 41 68 0
-8 -37 0
5 6 40 41 0
-7 -54 0
-8 -55 0
13 -56 70 71 0
-7 -70 0
-8 -71 0
18 19 59 60 0
-9 -46 0
-10 -47 0
20 -35 54 55 0
-9 -59 0
-10 -60 0
-9 -74 0
-10 -75 0
21 22 31 32 0
-9 -78 0
-10 -79 0
1 2 46 47 0
-11 -42 0
-12 -43 0
11 12 72 73 0
-11 -64 0
-12 -65 0
-11 -70 0
-12 -71 0
-27 48 -50 61 0
-11 -72 0
-12 -73 0
-3 37 72 73 0
-11 -76 0
-12 -77 0
23 24 66 67 0
20 -35 64 65 0
-13 -39 0
27 28 72 73 0
20 35 36 -64 0
-13 -57 0
20 35 36 -54 0
-13 -71 0
25 26 82 83 0
-14 -40 0
-15 -41 0
-14 -46 0
-15 -47 0
21 22 51 52 0
42 43 -49 58 0
-15 -53 0
49 50 59 60 0
-14 -61 0
1 2 -27 68 0
25 26 38 39 0
-14 -74 0
-15 -75 0
16 17 40 41 0
-14 -76 0
-15 -77 0
13 38 39 -70 0
-14 -80 0
-15 -81 0
-16 -29 0
-17 -30 0
9 10 74 75 0
-16 -31 0
-17 -32 0
-23 49 50 69 0
-16 -40 0
-17 -41 0
-16 -54 0
-17 -55 0
7 8 54 55 0
-16 -82 0
-17 -83 0
-18 -49 0
-19 -50 0
20 54 55 -64 0
-18 -51 0
-19 -52 0
-33 49 50 58 0
-18 -59 0
-19 -60 0
-15 -27 48 61 0
-18 -72 0
-19 -73 0
46 47 72 73 0
-18 -74 0
-19 -75 0
14 15 74 75 0
-3 7 8 37 0
-20 -36 0
3 4 37 -72 0
-20 -55 0
-42 49 50 58 0
3 4 -7 37 0
-20 -65 0
3 4 44 45 0
-21 -29 0
-22 -30 0
-21 -31 0
-22 -32 0
9 10 78 79 0
-21 -33 0
-22 -34 0
-40 49 50 69 0
-21 -51 0
-22 -52 0
27 28 76 77 0
-23 -29 0
-24 -30 0
-23 -33 0
-24 -34 0
14 15 53 -82 0
-23 -59 0
-24 -60 0
13 -38 70 71 0
-23 -66 0
-24 -67 0
-7 37 72 73 0
-24 -69 0
25 26 54 55 0
31 32 82 83 0
-25 -38 0
-26 -39 0
25 26 40 41 0
-25 -40 0
-26 -41 0
14 15 40 41 0
-25 -54 0
-26 -55 0
40 41 66 67 0
-25 -74 0
-26 -75 0
33 34 76 77 0
-25 -78 0
-26 -79 0
16 17 54 55 0
-25 -80 0
-26 -81 0
1 2 38 39 0
-25 -82 0
-26 -83 0
23 24 29 30 0
-27 -35 0
-28 -36 0
1 2 42 43 0
1 2 -14 53 0
-28 -48 0
18 19 49 50 0
23 24 -49 69 0
-28 -68 0
16 17 29 30 0
-27 -72 0
-28 -73 0
13 38 39 -56 0
-27 -76 0
-28 -77 0
16 17 31 32 0
-29 -74 0
-30 -75 0
7 8 31 32 0
-29 -78 0
-30 -79 0
27 28 35 36 0
-31 -64 0
-32 -65 0
7 8 35 36 0
-31 -82 0
-32 -83 0
-33 -56 0
-34 -57 0
-15 49 50 61 0
-34 -58 0
-33 -76 0
-34 -77 0
-35 -78 0
-36 -79 0
21 22 29 30 0
-27 40 41 68 0
-37 -73 0
5 6 62 63 0
-38 -59 0
-39 -60 0
31 32 64 65 0
-38 -62 0
-39 -63 0
16 17 82 83 0
-38 -82 0
-39 -83 0
-40 -66 0
-41 -67 0
23 24 -40 69 0
-41 -68 0
14 15 46 47 0
-41 -69 0
54 55 66 67 0
14 15 -50 61 0
-43 -58 0
51 52 80 81 0
-42 -64 0
-43 -65 0
51 52 56 57 0
-42 -66 0
-43 -67 0
9 10 46 47 0
-44 -56 0
-45 -57 0
29 30 74 75 0
-44 -70 0
-45 -71 0
-44 -74 0
-45 -75 0
9 10 59 60 0
-46 -72 0
-47 -73 0
25 26 78 79 0
-14 53 82 83 0
27 28 -40 68 0
14 15 80 81 0
-1 53 82 83 0
-48 -73 0
44 45 70 71 0
-27 48 72 73 0
13 56 57 -70 0
7 8 70 71 0
48 -50 61 -72 0
13 -38 56 57 0
25 26 80 81 0
14 15 -48 61 0
-50 -58 0
3 4 62 63 0
-49 -59 0
-50 -60 0
3 4 33 34 0
-49 -61 0
-1 27 28 68 0
38 39 59 60 0
-50 -69 0
-51 -56 0
-52 -57 0
23 24 59 60 0
-51 -74 0
-52 -75 0
5 6 49 50 0
-51 -80 0
-52 -81 0
38 39 62 63 0
-33 42 43 58 0
-53 -83 0
11 12 64 65 0
-54 -62 0
-55 -63 0
11 12 70 71 0
-54 -66 0
-55 -67 0
33 34 56 57 0
-54 -78 0
-55 -79 0
